\Problem name: samp1.lp

Maximize
 35 x1 + 36 x2 + 42 x3
Subject To
 3 x1 + 2 x2 + 6 x3 <= 2000
 4 x1 + 8 x2 + 2 x3 <= 3000
 6 x1 + 3 x2 + x3 <= 600
Bounds
 0 <= X1 <= 4
 2 <= X2 <= 5
 0 <= X3 <= 1
 3 <= X4 <= 8
Binaries
 X3 
Generals
 X2 
End